============================[ Problem Statistics ]=============================|                                                                             ||  Number of variables:          4242                                         ||  Number of clauses:           10205                                         ||  Parse time:                   0.59 s                                       ||                                                                             |============================[ Search Statistics ]==============================| Conflicts |          ORIGINAL         |          LEARNT          | Progress ||           |    Vars  Clauses Literals |    Limit  Clauses Lit/Cl |          |===============================================================================|       100 |    1591     6410   945711 |     2350      100     53 | 62.501 % ||       250 |    1591     6410   945711 |     2585      250     75 | 62.495 % |===============================================================================restarts              : 3conflicts             : 327            (367 /sec)decisions             : 591            (0.00 % random) (663 /sec)propagations          : 11905          (13361 /sec)conflict literals     : 26237          (94.67 % deleted)CPU time              : 0.891 sSATISFIABLE